Ba16 Sr16 Co32 H16 O112
1.0
11.105711 0.000000 -0.009586
0.000000 15.870950 0.000000
0.000000 0.000000 55.528576
Ba Sr Co H O
16 16 32 16 112
direct
0.125339 0.247708 0.422621 Ba
0.125340 0.747713 0.422622 Ba
0.625339 0.247710 0.422620 Ba
0.625341 0.747711 0.422622 Ba
0.374818 0.001665 0.475477 Ba
0.374828 0.501706 0.475466 Ba
0.874815 0.001665 0.475477 Ba
0.874811 0.501673 0.475476 Ba
0.125221 0.251711 0.524539 Ba
0.125217 0.751712 0.524539 Ba
0.625191 0.251711 0.524538 Ba
0.625216 0.751710 0.524538 Ba
0.374685 0.997721 0.577387 Ba
0.374684 0.497696 0.577373 Ba
0.874681 0.997713 0.577386 Ba
0.874677 0.497710 0.577384 Ba
0.374823 0.250027 0.475284 Sr
0.374810 0.750066 0.475288 Sr
0.874808 0.250053 0.475288 Sr
0.874811 0.750063 0.475287 Sr
0.124964 0.499740 0.427509 Sr
0.124974 0.999735 0.427512 Sr
0.624977 0.499738 0.427509 Sr
0.624962 0.999738 0.427510 Sr
0.375017 0.249694 0.572450 Sr
0.374919 0.749649 0.572515 Sr
0.874894 0.249649 0.572508 Sr
0.874903 0.749653 0.572517 Sr
0.125221 0.000040 0.524712 Sr
0.125195 0.500080 0.524715 Sr
0.625225 0.000041 0.524711 Sr
0.625237 0.500011 0.524721 Sr
0.365878 0.374995 0.426128 Co
0.365881 0.874995 0.426128 Co
0.865882 0.374996 0.426128 Co
0.865881 0.874996 0.426128 Co
0.384105 0.124847 0.426113 Co
0.384104 0.624847 0.426111 Co
0.884104 0.124847 0.426111 Co
0.884103 0.624848 0.426112 Co
0.128873 0.125672 0.474108 Co
0.128875 0.625688 0.474107 Co
0.628876 0.125679 0.474107 Co
0.628876 0.625681 0.474108 Co
0.119732 0.374793 0.473815 Co
0.119743 0.874788 0.473817 Co
0.619742 0.374789 0.473816 Co
0.619748 0.874788 0.473817 Co
0.371123 0.375688 0.525891 Co
0.371107 0.875640 0.525885 Co
0.871119 0.375634 0.525883 Co
0.871100 0.875633 0.525886 Co
0.380282 0.124789 0.526187 Co
0.380292 0.624794 0.526188 Co
0.880287 0.124791 0.526188 Co
0.880282 0.624792 0.526187 Co
0.134116 0.124995 0.573871 Co
0.134115 0.624994 0.573871 Co
0.634115 0.124993 0.573871 Co
0.634115 0.624994 0.573871 Co
0.115903 0.374850 0.573884 Co
0.115891 0.874847 0.573889 Co
0.615910 0.374849 0.573886 Co
0.615888 0.874848 0.573889 Co
0.262438 0.809713 0.609836 H
0.374685 0.935101 0.632285 H
0.487102 1.059713 0.609802 H
0.262770 0.311686 0.604900 H
0.384115 0.437373 0.628769 H
0.487101 0.559687 0.609788 H
0.762770 -0.188314 0.604900 H
0.865903 -0.062771 0.628782 H
0.987101 0.059687 0.609788 H
0.762437 0.309687 0.609822 H
0.874919 0.437029 0.627414 H
0.996532 0.561986 0.606286 H
0.374681 1.184317 0.632285 H
0.374681 1.684317 0.632285 H
0.874681 1.184317 0.632285 H
0.874894 0.686253 0.627407 H
0.124960 0.250475 0.474727 O
0.124961 0.750475 0.474727 O
0.624961 0.250475 0.474727 O
0.624961 0.750475 0.474727 O
0.375032 0.249503 0.425275 O
0.375032 0.749503 0.425275 O
0.875032 0.249503 0.425275 O
0.875032 0.749503 0.425275 O
0.014827 0.125004 0.451478 O
0.014829 0.625005 0.451478 O
0.514824 0.125004 0.451479 O
0.514823 0.625004 0.451479 O
0.485052 0.124880 0.403312 O
0.485074 0.624881 0.403306 O
0.985070 0.124879 0.403306 O
0.985069 0.624882 0.403308 O
0.493064 0.375025 0.445915 O
0.493065 0.875025 0.445915 O
0.993064 0.375025 0.445915 O
0.993065 0.875025 0.445915 O
0.014894 0.375012 0.496920 O
0.014896 0.875014 0.496920 O
0.514882 0.375025 0.496917 O
0.514896 0.875014 0.496920 O
0.374930 0.000499 0.424769 O
0.374930 0.500499 0.424769 O
0.874930 0.000499 0.424769 O
0.874930 0.500499 0.424769 O
0.124950 0.500476 0.474738 O
0.124951 0.000476 0.474738 O
0.624951 0.500476 0.474738 O
0.624951 0.000476 0.474738 O
0.265339 0.375137 0.403389 O
0.265341 0.875141 0.403390 O
0.765340 0.375140 0.403390 O
0.765340 0.875140 0.403390 O
0.234935 0.374995 0.451424 O
0.234936 0.874995 0.451424 O
0.734936 0.374995 0.451424 O
0.734936 0.874995 0.451424 O
0.234872 0.125015 0.496976 O
0.234872 0.625015 0.496976 O
0.734874 0.125014 0.496976 O
0.734873 0.625015 0.496976 O
0.257167 0.124505 0.446403 O
0.257168 0.624505 0.446403 O
0.757169 0.124507 0.446402 O
0.757169 0.624505 0.446403 O
0.125070 0.250499 0.575231 O
0.125070 0.750499 0.575231 O
0.625071 0.250499 0.575231 O
0.625071 0.750499 0.575231 O
0.375052 0.250477 0.525261 O
0.375051 0.750477 0.525261 O
0.875050 0.250477 0.525261 O
0.875050 0.750477 0.525261 O
0.006907 0.125040 0.554078 O
0.006906 0.625041 0.554078 O
0.506905 0.125043 0.554078 O
0.506898 0.625052 0.554077 O
0.485106 0.125014 0.503080 O
0.485107 0.625015 0.503080 O
0.985106 0.125014 0.503080 O
0.985106 0.625015 0.503080 O
0.485175 0.375004 0.548522 O
0.485174 0.875003 0.548522 O
0.985174 0.375003 0.548522 O
0.985162 0.875003 0.548524 O
0.015015 0.374895 0.596673 O
0.014925 0.874881 0.596695 O
0.515018 0.374895 0.596672 O
0.514924 0.874880 0.596695 O
0.375042 0.000475 0.525273 O
0.375042 0.500475 0.525273 O
0.875042 0.000475 0.525273 O
0.875041 0.500475 0.525273 O
0.124970 0.499504 0.574724 O
0.124969 0.999504 0.574724 O
0.624970 0.499504 0.574724 O
0.624970 0.999504 0.574724 O
0.265138 0.375015 0.503022 O
0.265118 0.875026 0.503025 O
0.765128 0.375025 0.503020 O
0.765117 0.875020 0.503025 O
0.242835 0.374506 0.553596 O
0.242830 0.874506 0.553594 O
0.742832 0.374505 0.553594 O
0.742831 0.874505 0.553595 O
0.234656 0.125141 0.596610 O
0.234658 0.625141 0.596610 O
0.734658 0.125142 0.596610 O
0.734658 0.625142 0.596610 O
0.265064 0.124995 0.548576 O
0.265064 0.624995 0.548576 O
0.765064 0.124995 0.548576 O
0.765064 0.624996 0.548576 O
0.262438 0.872721 0.602236 O
0.374685 0.998109 0.624685 O
0.487102 1.122721 0.602202 O
0.262770 0.374694 0.597300 O
0.384115 0.500381 0.621170 O
0.487101 0.622696 0.602189 O
0.762770 -0.125306 0.597300 O
0.865903 0.000237 0.621182 O
0.987101 0.122696 0.602189 O
0.762437 0.372696 0.602223 O
0.874919 0.500037 0.619814 O
0.996532 0.624994 0.598686 O
0.374681 1.247325 0.624685 O
0.374681 1.747325 0.624685 O
0.874681 1.247325 0.624685 O
0.874894 0.749261 0.619807 O
